<instance format="XCSP3" type="COP">
  <variables>
    <array id="s" note="Start time of operation j for job i" size="[7][7]"> 0..518 </array>
    <array id="e" note="End time of last operation of job i" size="[7]"> 0..518 </array>
    <array id="d" note="Duration of operation j for job i" size="[7][7]">
      <domain for="d[0][]"> 19 23 26 62 80 86 90 </domain>
      <domain for="d[1][]"> 7 20 59 62 65 74 91 </domain>
      <domain for="d[2][]"> 4 7 45 53 56 95 99 </domain>
      <domain for="d[3][]"> 6 12 29 48 49 62 77 </domain>
      <domain for="d[4][]"> 27 33 38 42 73 81 95 </domain>
      <domain for="d[5][]"> 36 39 56 62 66 70 76 </domain>
      <domain for="d[6][]"> 8 36 39 51 55 71 73 </domain>
    </array>
    <array id="w" note="Which machine for operation j of job i" size="[7][7]"> 0..6 </array>
    <array id="sd" note="Start (dual) time of job i, machine k" size="[7][7]"> 0..518 </array>
  </variables>
  <constraints>
    <group>
      <intension> eq(%0,add(%1,%2)) </intension>
      <args> e[0] s[0][6] d[0][6] </args>
      <args> e[1] s[1][6] d[1][6] </args>
      <args> e[2] s[2][6] d[2][6] </args>
      <args> e[3] s[3][6] d[3][6] </args>
      <args> e[4] s[4][6] d[4][6] </args>
      <args> e[5] s[5][6] d[5][6] </args>
      <args> e[6] s[6][6] d[6][6] </args>
    </group>
    <group>
      <allDifferent> %... </allDifferent>
      <args> w[0][] </args>
      <args> w[1][] </args>
      <args> w[2][] </args>
      <args> w[3][] </args>
      <args> w[4][] </args>
      <args> w[5][] </args>
      <args> w[6][] </args>
    </group>
    <block>
      <group>
        <extension>
          <list> %0 %1 </list>
          <supports> (0,90)(1,62)(2,19)(3,26)(4,80)(5,23)(6,86) </supports>
        </extension>
        <args> w[0][0] d[0][0] </args>
        <args> w[0][1] d[0][1] </args>
        <args> w[0][2] d[0][2] </args>
        <args> w[0][3] d[0][3] </args>
        <args> w[0][4] d[0][4] </args>
        <args> w[0][5] d[0][5] </args>
        <args> w[0][6] d[0][6] </args>
      </group>
      <group>
        <extension>
          <list> %0 %1 </list>
          <supports> (0,20)(1,7)(2,65)(3,59)(4,74)(5,91)(6,62) </supports>
        </extension>
        <args> w[1][0] d[1][0] </args>
        <args> w[1][1] d[1][1] </args>
        <args> w[1][2] d[1][2] </args>
        <args> w[1][3] d[1][3] </args>
        <args> w[1][4] d[1][4] </args>
        <args> w[1][5] d[1][5] </args>
        <args> w[1][6] d[1][6] </args>
      </group>
      <group>
        <extension>
          <list> %0 %1 </list>
          <supports> (0,53)(1,99)(2,95)(3,56)(4,45)(5,7)(6,4) </supports>
        </extension>
        <args> w[2][0] d[2][0] </args>
        <args> w[2][1] d[2][1] </args>
        <args> w[2][2] d[2][2] </args>
        <args> w[2][3] d[2][3] </args>
        <args> w[2][4] d[2][4] </args>
        <args> w[2][5] d[2][5] </args>
        <args> w[2][6] d[2][6] </args>
      </group>
      <group>
        <extension>
          <list> %0 %1 </list>
          <supports> (0,49)(1,48)(2,62)(3,77)(4,12)(5,29)(6,6) </supports>
        </extension>
        <args> w[3][0] d[3][0] </args>
        <args> w[3][1] d[3][1] </args>
        <args> w[3][2] d[3][2] </args>
        <args> w[3][3] d[3][3] </args>
        <args> w[3][4] d[3][4] </args>
        <args> w[3][5] d[3][5] </args>
        <args> w[3][6] d[3][6] </args>
      </group>
      <group>
        <extension>
          <list> %0 %1 </list>
          <supports> (0,27)(1,33)(2,42)(3,73)(4,38)(5,95)(6,81) </supports>
        </extension>
        <args> w[4][0] d[4][0] </args>
        <args> w[4][1] d[4][1] </args>
        <args> w[4][2] d[4][2] </args>
        <args> w[4][3] d[4][3] </args>
        <args> w[4][4] d[4][4] </args>
        <args> w[4][5] d[4][5] </args>
        <args> w[4][6] d[4][6] </args>
      </group>
      <group>
        <extension>
          <list> %0 %1 </list>
          <supports> (0,66)(1,70)(2,62)(3,56)(4,76)(5,36)(6,39) </supports>
        </extension>
        <args> w[5][0] d[5][0] </args>
        <args> w[5][1] d[5][1] </args>
        <args> w[5][2] d[5][2] </args>
        <args> w[5][3] d[5][3] </args>
        <args> w[5][4] d[5][4] </args>
        <args> w[5][5] d[5][5] </args>
        <args> w[5][6] d[5][6] </args>
      </group>
      <group>
        <extension>
          <list> %0 %1 </list>
          <supports> (0,73)(1,8)(2,71)(3,51)(4,55)(5,39)(6,36) </supports>
        </extension>
        <args> w[6][0] d[6][0] </args>
        <args> w[6][1] d[6][1] </args>
        <args> w[6][2] d[6][2] </args>
        <args> w[6][3] d[6][3] </args>
        <args> w[6][4] d[6][4] </args>
        <args> w[6][5] d[6][5] </args>
        <args> w[6][6] d[6][6] </args>
      </group>
    </block>
    <group>
      <intension> le(add(%0,%1),%2) </intension>
      <args> s[0][0] d[0][0] s[0][1] </args>
      <args> s[0][1] d[0][1] s[0][2] </args>
      <args> s[0][2] d[0][2] s[0][3] </args>
      <args> s[0][3] d[0][3] s[0][4] </args>
      <args> s[0][4] d[0][4] s[0][5] </args>
      <args> s[0][5] d[0][5] s[0][6] </args>
      <args> s[1][0] d[1][0] s[1][1] </args>
      <args> s[1][1] d[1][1] s[1][2] </args>
      <args> s[1][2] d[1][2] s[1][3] </args>
      <args> s[1][3] d[1][3] s[1][4] </args>
      <args> s[1][4] d[1][4] s[1][5] </args>
      <args> s[1][5] d[1][5] s[1][6] </args>
      <args> s[2][0] d[2][0] s[2][1] </args>
      <args> s[2][1] d[2][1] s[2][2] </args>
      <args> s[2][2] d[2][2] s[2][3] </args>
      <args> s[2][3] d[2][3] s[2][4] </args>
      <args> s[2][4] d[2][4] s[2][5] </args>
      <args> s[2][5] d[2][5] s[2][6] </args>
      <args> s[3][0] d[3][0] s[3][1] </args>
      <args> s[3][1] d[3][1] s[3][2] </args>
      <args> s[3][2] d[3][2] s[3][3] </args>
      <args> s[3][3] d[3][3] s[3][4] </args>
      <args> s[3][4] d[3][4] s[3][5] </args>
      <args> s[3][5] d[3][5] s[3][6] </args>
      <args> s[4][0] d[4][0] s[4][1] </args>
      <args> s[4][1] d[4][1] s[4][2] </args>
      <args> s[4][2] d[4][2] s[4][3] </args>
      <args> s[4][3] d[4][3] s[4][4] </args>
      <args> s[4][4] d[4][4] s[4][5] </args>
      <args> s[4][5] d[4][5] s[4][6] </args>
      <args> s[5][0] d[5][0] s[5][1] </args>
      <args> s[5][1] d[5][1] s[5][2] </args>
      <args> s[5][2] d[5][2] s[5][3] </args>
      <args> s[5][3] d[5][3] s[5][4] </args>
      <args> s[5][4] d[5][4] s[5][5] </args>
      <args> s[5][5] d[5][5] s[5][6] </args>
      <args> s[6][0] d[6][0] s[6][1] </args>
      <args> s[6][1] d[6][1] s[6][2] </args>
      <args> s[6][2] d[6][2] s[6][3] </args>
      <args> s[6][3] d[6][3] s[6][4] </args>
      <args> s[6][4] d[6][4] s[6][5] </args>
      <args> s[6][5] d[6][5] s[6][6] </args>
    </group>
    <block class="channeling">
      <group>
        <element>
          <list> sd[0][] </list>
          <index> %0 </index>
          <value> %1 </value>
        </element>
        <args> w[0][0] s[0][0] </args>
        <args> w[0][1] s[0][1] </args>
        <args> w[0][2] s[0][2] </args>
        <args> w[0][3] s[0][3] </args>
        <args> w[0][4] s[0][4] </args>
        <args> w[0][5] s[0][5] </args>
        <args> w[0][6] s[0][6] </args>
      </group>
      <group>
        <element>
          <list> sd[1][] </list>
          <index> %0 </index>
          <value> %1 </value>
        </element>
        <args> w[1][0] s[1][0] </args>
        <args> w[1][1] s[1][1] </args>
        <args> w[1][2] s[1][2] </args>
        <args> w[1][3] s[1][3] </args>
        <args> w[1][4] s[1][4] </args>
        <args> w[1][5] s[1][5] </args>
        <args> w[1][6] s[1][6] </args>
      </group>
      <group>
        <element>
          <list> sd[2][] </list>
          <index> %0 </index>
          <value> %1 </value>
        </element>
        <args> w[2][0] s[2][0] </args>
        <args> w[2][1] s[2][1] </args>
        <args> w[2][2] s[2][2] </args>
        <args> w[2][3] s[2][3] </args>
        <args> w[2][4] s[2][4] </args>
        <args> w[2][5] s[2][5] </args>
        <args> w[2][6] s[2][6] </args>
      </group>
      <group>
        <element>
          <list> sd[3][] </list>
          <index> %0 </index>
          <value> %1 </value>
        </element>
        <args> w[3][0] s[3][0] </args>
        <args> w[3][1] s[3][1] </args>
        <args> w[3][2] s[3][2] </args>
        <args> w[3][3] s[3][3] </args>
        <args> w[3][4] s[3][4] </args>
        <args> w[3][5] s[3][5] </args>
        <args> w[3][6] s[3][6] </args>
      </group>
      <group>
        <element>
          <list> sd[4][] </list>
          <index> %0 </index>
          <value> %1 </value>
        </element>
        <args> w[4][0] s[4][0] </args>
        <args> w[4][1] s[4][1] </args>
        <args> w[4][2] s[4][2] </args>
        <args> w[4][3] s[4][3] </args>
        <args> w[4][4] s[4][4] </args>
        <args> w[4][5] s[4][5] </args>
        <args> w[4][6] s[4][6] </args>
      </group>
      <group>
        <element>
          <list> sd[5][] </list>
          <index> %0 </index>
          <value> %1 </value>
        </element>
        <args> w[5][0] s[5][0] </args>
        <args> w[5][1] s[5][1] </args>
        <args> w[5][2] s[5][2] </args>
        <args> w[5][3] s[5][3] </args>
        <args> w[5][4] s[5][4] </args>
        <args> w[5][5] s[5][5] </args>
        <args> w[5][6] s[5][6] </args>
      </group>
      <group>
        <element>
          <list> sd[6][] </list>
          <index> %0 </index>
          <value> %1 </value>
        </element>
        <args> w[6][0] s[6][0] </args>
        <args> w[6][1] s[6][1] </args>
        <args> w[6][2] s[6][2] </args>
        <args> w[6][3] s[6][3] </args>
        <args> w[6][4] s[6][4] </args>
        <args> w[6][5] s[6][5] </args>
        <args> w[6][6] s[6][6] </args>
      </group>
    </block>
    <block>
      <noOverlap>
        <origins> sd[][0] </origins>
        <lengths> 90 20 53 49 27 66 73 </lengths>
      </noOverlap>
      <noOverlap>
        <origins> sd[][1] </origins>
        <lengths> 62 7 99 48 33 70 8 </lengths>
      </noOverlap>
      <noOverlap>
        <origins> sd[][2] </origins>
        <lengths> 19 65 95 62 42 62 71 </lengths>
      </noOverlap>
      <noOverlap>
        <origins> sd[][3] </origins>
        <lengths> 26 59 56 77 73 56 51 </lengths>
      </noOverlap>
      <noOverlap>
        <origins> sd[][4] </origins>
        <lengths> 80 74 45 12 38 76 55 </lengths>
      </noOverlap>
      <noOverlap>
        <origins> sd[][5] </origins>
        <lengths> 23 91 7 29 95 36 39 </lengths>
      </noOverlap>
      <noOverlap>
        <origins> sd[][6] </origins>
        <lengths> 86 62 4 6 81 39 36 </lengths>
      </noOverlap>
    </block>
    <group class="redundantConstraints">
      <intension> ge(%0,%1) </intension>
      <args> e[0] 386 </args>
      <args> e[1] 378 </args>
      <args> e[2] 359 </args>
      <args> e[3] 283 </args>
      <args> e[4] 389 </args>
      <args> e[5] 405 </args>
      <args> e[6] 333 </args>
    </group>
  </constraints>
  <objectives>
    <minimize type="maximum"> e[] </minimize>
  </objectives>
</instance>
